21
4.6	7.1	0	0
5.7	11.4	10	12
4.4	12.3	10	6
2.8	14.3	10	6
3.2	10.3	10	13
3.5	9.8	10	6
4.4	8.4	10	17
7.8	11	10	20
8.8	9.8	10	15
7.7	8.2	10	7
6.3	7.9	10	12
5.4	8.2	10	3
5.8	6.8	10	19
6.7	5.8	10	18
13.8	13.1	10	17
14.1	14.2	10	6
11.2	13.6	10	12
9.7	16.4	10	1
9.5	18.8	10	9
4.7	16.8	10	7
5	5.6	0	0